NAME : explosion
TYPE : TSP
DIMENSION : 50
EDGE_WEIGHT_TYPE : EUC_2D
NODE_COORD_SECTION
1 100465 162730
2 670661 165604
3 525879 15483
4 972684 39677
5 924596 80003
6 255873 709981
7 345898 304894
8 502723 123122
9 362771 866792
10 965412 512909
11 837976 152456
12 950126 461389
13 389210 793353
14 966035 504341
15 532780 86217
16 874546 308831
17 180203 827602
18 544624 227609
19 473867 207886
20 148247 231411
21 70298 990412
22 684745 718431
23 935871 42967
24 109440 272385
25 342183 260322
26 130146 696565
27 22568 519727
28 769484 108347
29 970179 333769
30 19266 156773
31 264284 983082
32 688554 53795
33 44420 135512
34 40478 103123
35 856598 279380
36 259377 578625
37 949776 281683
38 903150 275309
39 903177 982319
40 930779 267966
41 588340 952996
42 524187 33192
43 742148 525662
44 364964 848299
45 899984 130574
46 335410 228574
47 482276 188123
48 848802 302401
49 58739 221013
50 852201 11166
EOF
